# Solution for model iteration_36
# Objective value = 1.5318013988761519e+00
0 0
1 0.001
3 0.001
4 30.001
5 3.1405217807424517e+01
7 1.2200230000000002e+02
8 1.3200230000000002e+02
9 6.4054988355568426e+01
11 9.6704758903712332e+01
13 1.3200330000000002e+02
lambda[0] 0
lambda[1] 0
lambda[2] 0
lambda[3] 0
lambda[4] 0
lambda[5] 0
lambda[6] 0
lambda[7] 0
lambda[8] 0
lambda[9] 0
lambda[10] 0
lambda[11] 0
lambda[12] 0
lambda[13] 0
lambda[14] 0
lambda[15] 0
lambda[16] 0
lambda[17] 0
lambda[18] 0
lambda[19] 0
lambda[20] 0
lambda[21] 0
lambda[22] 0
lambda[23] 0
lambda[24] 0
lambda[25] 0
lambda[26] 0
lambda[27] 1
lambda[28] 0
lambda[29] 0
lambda[30] 0
lambda[31] 0
lambda[32] 0
lambda[33] 0
lambda[34] 0
lambda[35] 0
phi[0] 1.5318013988761519e+00
